c turning on binary mode checking
c parsing input formula with 202048 variables and 780990 clauses
c finished parsing, read 16091245 bytes from proof file
c detected empty clause; start verification via backward checking
c 3027 of 780990 clauses in core                            
c 1980 of 438876 lemmas in core using 13750 resolution steps
c 0 RAT lemmas in core; 128 redundant literals in core lemmas
s VERIFIED
c verification time: 1.841 seconds
